2
150 2
68
21 1 2
22 1 1
23 1 3
24 1 2
25 1 1
26 1 1
27 1 1
28 1 2
29 1 1
31 1 2
32 1 2
33 1 3
34 1 1
35 1 1
36 1 1
37 1 1
38 1 2
39 1 2
40 1 1
41 1 1
42 1 1
43 1 2
44 1 3
46 1 1
47 1 1
48 1 2
49 1 2
50 1 6
51 1 1
52 1 1
54 1 3
55 1 1
57 1 1
58 1 3
59 1 1
60 1 2
62 1 3
63 1 2
64 1 1
65 1 2
66 1 2
67 1 1
68 1 1
69 1 1
72 1 2
73 1 1
74 1 2
75 1 1
76 1 1
77 1 3
78 1 1
79 1 1
80 1 1
83 1 1
84 1 1
85 1 2
86 1 2
88 1 1
89 1 1
90 1 4
92 1 1
93 1 1
94 1 2
95 1 4
96 1 2
97 1 5
99 1 3
100 1 2
